W=6;
H=7;

MAX_TIME=W*H;
MAX_TRACKS=28;

TARGET=(4,6);

N_TRAINS=3;
TRAINS=[(2,4,RIGHT),(4,4,LEFT),(6,4,RIGHT)];

N_INIT_POS=6;
INIT_POS=[
(2,1,STRAIGHT_TD),
(2,4,STRAIGHT_RL),
(4,4,STRAIGHT_RL),
(4,6,STRAIGHT_RL),
(6,1,STRAIGHT_TD),
(6,4,STRAIGHT_RL),
];
N_TUNNELS=0;
TUNNEL_PAIRS=[];

N_GATES=0;
GATES=[];
N_ACTIVATIONS=0;
ACTIVATIONS=[];

N_DSWITCHES=0;
DSWITCHES=[];
N_STATIONS=2;
STATIONS=[
  (2,1,3),
  (6,1,1),
];
